files/upTests/__issues/120-funcToSet-rel/0001.eprime
language ESSENCE' 1.0

given a: int
given b: int
find fs_AsReln_RelationAsSet_ExplicitVarSize_tuple1:
        matrix indexed by [int(1..(b - a + 1) * 16)] of bool
find fs_AsReln_RelationAsSet_ExplicitVarSize_tuple2_tuple1:
        matrix indexed by [int(1..(b - a + 1) * 16)] of int(a..b)
find fs_AsReln_RelationAsSet_ExplicitVarSize_tuple2_tuple2_Explicit_tuple1:
        matrix indexed by [int(1..(b - a + 1) * 16), int(1..2)] of int(10, 11)
find fs_AsReln_RelationAsSet_ExplicitVarSize_tuple2_tuple2_Explicit_tuple2:
        matrix indexed by [int(1..(b - a + 1) * 16), int(1..2)] of int(12, 13)
such that
    forAll v__0 : int(a..b)
        . (sum v__1 : int(1..(b - a + 1) * 16)
               . fs_AsReln_RelationAsSet_ExplicitVarSize_tuple1[v__1]
                 *
                 (v__0 = fs_AsReln_RelationAsSet_ExplicitVarSize_tuple2_tuple1[v__1]))
          =
          1,
    forAll v__0 : int(1..(b - a + 1) * 16)
        . (forAll v__1 : int(1..(b - a + 1) * 16)
               . v__0 < v__1 /\ fs_AsReln_RelationAsSet_ExplicitVarSize_tuple1[v__0]
                 /\
                 fs_AsReln_RelationAsSet_ExplicitVarSize_tuple1[v__1]
                 ->
                 fs_AsReln_RelationAsSet_ExplicitVarSize_tuple2_tuple1[v__0]
                 !=
                 fs_AsReln_RelationAsSet_ExplicitVarSize_tuple2_tuple1[v__1]
                 \/
                 !((forAll v__2 : int(1..2)
                        . (exists v__3 : int(1..2)
                               . fs_AsReln_RelationAsSet_ExplicitVarSize_tuple2_tuple2_Explicit_tuple1[v__1,
                                                                                                       v__3]
                                 =
                                 fs_AsReln_RelationAsSet_ExplicitVarSize_tuple2_tuple2_Explicit_tuple1[v__0,
                                                                                                       v__2]
                                 /\
                                 fs_AsReln_RelationAsSet_ExplicitVarSize_tuple2_tuple2_Explicit_tuple2[v__1,
                                                                                                       v__3]
                                 =
                                 fs_AsReln_RelationAsSet_ExplicitVarSize_tuple2_tuple2_Explicit_tuple2[v__0,
                                                                                                       v__2]))
                   /\
                   (forAll v__2 : int(1..2)
                        . (exists v__3 : int(1..2)
                               . fs_AsReln_RelationAsSet_ExplicitVarSize_tuple2_tuple2_Explicit_tuple1[v__0,
                                                                                                       v__3]
                                 =
                                 fs_AsReln_RelationAsSet_ExplicitVarSize_tuple2_tuple2_Explicit_tuple1[v__1,
                                                                                                       v__2]
                                 /\
                                 fs_AsReln_RelationAsSet_ExplicitVarSize_tuple2_tuple2_Explicit_tuple2[v__0,
                                                                                                       v__3]
                                 =
                                 fs_AsReln_RelationAsSet_ExplicitVarSize_tuple2_tuple2_Explicit_tuple2[v__1,
                                                                                                       v__2])))),
    forAll v__0 : int(1..(b - a + 1) * 16)
        . (forAll v__1 : int(1..2)
               . (forAll v__2 : int(1..2)
                      . v__1 < v__2
                        ->
                        fs_AsReln_RelationAsSet_ExplicitVarSize_tuple2_tuple2_Explicit_tuple1[v__0,
                                                                                              v__1]
                        !=
                        fs_AsReln_RelationAsSet_ExplicitVarSize_tuple2_tuple2_Explicit_tuple1[v__0,
                                                                                              v__2]
                        \/
                        fs_AsReln_RelationAsSet_ExplicitVarSize_tuple2_tuple2_Explicit_tuple2[v__0,
                                                                                              v__1]
                        !=
                        fs_AsReln_RelationAsSet_ExplicitVarSize_tuple2_tuple2_Explicit_tuple2[v__0,
                                                                                              v__2])),
    forAll v__0 : int(1..(b - a + 1) * 16 - 1)
        . fs_AsReln_RelationAsSet_ExplicitVarSize_tuple1[v__0]
          <=
          fs_AsReln_RelationAsSet_ExplicitVarSize_tuple1[v__0 + 1]
